analyze/results_flowersnark/final_miplib_symretope_if_extended_generating_set_cpx_v802__settings_final_nosym_norestarts__0__neos-525149.mps.gz.sol
solution status: optimal solution found
objective value:                                   61
C0073                                               1 	(obj:1)
C0154                                               1 	(obj:1)
C0163                                               1 	(obj:1)
C0252                                               1 	(obj:1)
C0326                                               1 	(obj:1)
C0341                                               1 	(obj:1)
C0411                                               1 	(obj:1)
C0476                                               1 	(obj:1)
C0530                                               1 	(obj:1)
C0627                                               1 	(obj:1)
C0695                                               1 	(obj:1)
C0728                                               1 	(obj:1)
C0786                                               1 	(obj:1)
C0872                                               1 	(obj:1)
C0925                                               1 	(obj:1)
C0981                                               1 	(obj:1)
C1038                                               1 	(obj:1)
C1065                                               1 	(obj:1)
C1127                                               1 	(obj:1)
C1220                                               1 	(obj:1)
C1269                                               1 	(obj:1)
C1318                                               1 	(obj:1)
C1402                                               1 	(obj:1)
C1476                                               1 	(obj:1)
C1537                                               1 	(obj:1)
C1565                                               1 	(obj:1)
C1604                                               1 	(obj:1)
C1672                                               1 	(obj:1)
C1763                                               1 	(obj:1)
C1838                                               1 	(obj:1)
C1879                                               1 	(obj:1)
C1917                                               1 	(obj:1)
C1969                                               1 	(obj:1)
C2068                                               1 	(obj:1)
C2082                                               1 	(obj:1)
C2148                                               1 	(obj:1)
C2227                                               1 	(obj:1)
C2296                                               1 	(obj:1)
C2369                                               1 	(obj:1)
C2411                                               1 	(obj:1)
C2490                                               1 	(obj:1)
C2559                                               1 	(obj:1)
C2613                                               1 	(obj:1)
C2680                                               1 	(obj:1)
C2695                                               1 	(obj:1)
C2770                                               1 	(obj:1)
C2837                                               1 	(obj:1)
C2894                                               1 	(obj:1)
C2944                                               1 	(obj:1)
C3031                                               1 	(obj:1)
C3060                                               1 	(obj:1)
C3114                                               1 	(obj:1)
C3173                                               1 	(obj:1)
C3226                                               1 	(obj:1)
C3303                                               1 	(obj:1)
C3359                                               1 	(obj:1)
C3421                                               1 	(obj:1)
C3504                                               1 	(obj:1)
C3542                                               1 	(obj:1)
C3615                                               1 	(obj:1)
C0024                                               1 	(obj:1)
