analyze/results_flowersnark/final_miplib_symretope_if_extended_generating_set_cpx_v802__settings_final_nosym_norestarts__0__neos-525149.mps.gz.out
FILENAME:   /home/mcs001/s132664/testsets/IP/miplib2017/neos-525149.mps.gz
SETTINGS:   settings_final_nosym_norestarts
TIMELIMIT:  7200
OUTPUTNAME: final_miplib_symretope_if_extended_generating_set_cpx_v802__settings_final_nosym_norestarts__0__
BINNAME:    bin/sbcs.linux.x86_64.gnu.opt.cpx
BASENAME:   neos-525149.mps.gz
SEED:       0
@01 /home/mcs001/s132664/testsets/IP/miplib2017/neos-525149.mps.gz ===========
@02 neos-525149.mps.gz
@03 1686649237
SCIP version 8.0.2 [precision: 8 byte] [memory: block] [mode: optimized] [LP solver: CPLEX 20.1.0.0] [GitHash: 5f0473c]
Copyright (C) 2002-2022 Konrad-Zuse-Zentrum fuer Informationstechnik Berlin (ZIB)

Symretope propagation methods - (c) Jasper van Doornmalen, Christopher Hojny.
[GitHash: 2fd0484]

reading parameter file <../settings/settings_final_nosym_norestarts.set> ...

Changed settings:
limits/time = 7200
limits/restarts = 0
misc/usesymmetry = 0
constraints/orbisack/sepafreq = -1
constraints/symresack/sepafreq = -1
propagating/symmetry/detectsubgroups = FALSE
propagating/symmetry/usesymretopes = FALSE
propagating/symmetry/relabelsymretopes = 0
propagating/symmetry/ofsymcomptiming = 0
constraints/symretope/sepafreq = -1
constraints/symretope/peek = FALSE


solving problem ...

original problem has 3640 variables (3600 bin, 0 int, 0 impl, 40 cont) and 144120 constraints
presolving:
(round 1, fast)       0 del vars, 0 del conss, 0 add conss, 40 chg bounds, 0 chg sides, 0 chg coeffs, 0 upgd conss, 0 impls, 120 clqs
(round 2, exhaustive) 0 del vars, 141600 del conss, 0 add conss, 40 chg bounds, 0 chg sides, 0 chg coeffs, 0 upgd conss, 0 impls, 120 clqs
(round 3, exhaustive) 0 del vars, 141600 del conss, 0 add conss, 40 chg bounds, 0 chg sides, 0 chg coeffs, 120 upgd conss, 0 impls, 120 clqs
   (1.1s) probing: 51/3600 (1.4%) - 0 fixings, 0 aggregations, 0 implications, 0 bound changes
   (1.1s) probing aborted: 50/50 successive totally useless probings
presolving (4 rounds: 4 fast, 3 medium, 3 exhaustive):
 0 deleted vars, 141600 deleted constraints, 0 added constraints, 40 tightened bounds, 0 added holes, 0 changed sides, 0 changed coefficients
 0 implications, 120 cliques
presolved problem has 3640 variables (3600 bin, 0 int, 40 impl, 0 cont) and 2520 constraints
    120 constraints of type <setppc>
   2400 constraints of type <linear>
transformed objective value is always integral (scale: 1)
Presolving Time: 0.72

 time | node  | left  |LP iter|LP it/n|mem/heur|mdpt |vars |cons |rows |cuts |sepa|confs|strbr|  dualbound   | primalbound  |  gap   | compl. 
p 1.1s|     1 |     0 |     0 |     - |  clique|   0 |3640 |2520 |2520 |   0 |  0 |   0 |   0 | 9.000000e+00 | 2.066000e+03 |  Large | unknown
  1.2s|     1 |     0 |   103 |     - |   294M |   0 |3640 |2525 |2520 |   0 |  0 |   5 |   0 | 6.000000e+01 | 2.066000e+03 |3343.33%| unknown
  1.3s|     1 |     0 |   125 |     - |   295M |   0 |3640 |2525 |2521 |   1 |  1 |   5 |   0 | 6.000000e+01 | 2.066000e+03 |3343.33%| unknown
  1.4s|     1 |     0 |   136 |     - |   295M |   0 |3640 |2525 |2523 |   3 |  2 |   5 |   0 | 6.000000e+01 | 2.066000e+03 |3343.33%| unknown
  1.4s|     1 |     0 |   158 |     - |   296M |   0 |3640 |2525 |2525 |   5 |  3 |   5 |   0 | 6.000000e+01 | 2.066000e+03 |3343.33%| unknown
  1.5s|     1 |     0 |   175 |     - |   296M |   0 |3640 |2525 |2528 |   8 |  4 |   5 |   0 | 6.000000e+01 | 2.066000e+03 |3343.33%| unknown
  1.5s|     1 |     0 |   196 |     - |   296M |   0 |3640 |2525 |2531 |  11 |  5 |   5 |   0 | 6.000000e+01 | 2.066000e+03 |3343.33%| unknown
  1.5s|     1 |     0 |   216 |     - |   296M |   0 |3640 |2525 |2534 |  14 |  6 |   5 |   0 | 6.000000e+01 | 2.066000e+03 |3343.33%| unknown
r 1.5s|     1 |     0 |   216 |     - |shifting|   0 |3640 |2522 |2534 |  14 |  6 |   5 |   0 | 6.000000e+01 | 7.300000e+01 |  21.67%| unknown
  1.5s|     1 |     0 |   230 |     - |   297M |   0 |3640 |2522 |2536 |  16 |  7 |   5 |   0 | 6.000000e+01 | 7.300000e+01 |  21.67%| unknown
  1.6s|     1 |     0 |   230 |     - |   297M |   0 |3640 |2522 |1564 |  16 |  7 |   5 |   0 | 6.000000e+01 | 7.300000e+01 |  21.67%| unknown
  1.6s|     1 |     0 |   230 |     - |   297M |   0 |3640 |2522 |1564 |  16 |  7 |   5 |   0 | 6.000000e+01 | 7.300000e+01 |  21.67%| unknown
  1.7s|     1 |     0 |   256 |     - |   297M |   0 |3640 |2522 |1566 |  18 |  8 |   5 |   0 | 6.000000e+01 | 7.300000e+01 |  21.67%| unknown
r 1.7s|     1 |     0 |   256 |     - |shifting|   0 |3640 |2522 |1566 |  18 |  8 |   5 |   0 | 6.000000e+01 | 7.100000e+01 |  18.33%| unknown
  1.7s|     1 |     0 |   279 |     - |   297M |   0 |3640 |2522 |1568 |  20 |  9 |   5 |   0 | 6.000000e+01 | 7.100000e+01 |  18.33%| unknown
 time | node  | left  |LP iter|LP it/n|mem/heur|mdpt |vars |cons |rows |cuts |sepa|confs|strbr|  dualbound   | primalbound  |  gap   | compl. 
r 1.7s|     1 |     0 |   279 |     - |shifting|   0 |3640 |2522 |1568 |  20 |  9 |   5 |   0 | 6.000000e+01 | 6.100000e+01 |   1.67%| unknown
  1.7s|     1 |     0 |   279 |     - |   298M |   0 |3640 |2522 |1568 |  20 |  9 |   5 |   0 | 6.000000e+01 | 6.100000e+01 |   1.67%| unknown
  1.7s|     1 |     0 |   279 |     - |   298M |   0 |3640 |2522 |1568 |  20 |  9 |   5 |   0 | 6.000000e+01 | 6.100000e+01 |   1.67%| unknown
  1.7s|     1 |     0 |   283 |     - |   298M |   0 |3640 |2522 |1568 |  22 | 10 |   5 |   0 | 6.000000e+01 | 6.100000e+01 |   1.67%| unknown
  1.7s|     1 |     0 |   283 |     - |   298M |   0 |3640 |2522 |1568 |  22 | 10 |   6 |   0 | 6.100000e+01 | 6.100000e+01 |   0.00%| unknown

SCIP Status        : problem is solved [optimal solution found]
Solving Time (sec) : 1.73
Solving Nodes      : 1
Primal Bound       : +6.10000000000000e+01 (4 solutions)
Dual Bound         : +6.10000000000000e+01
Gap                : 0.00 %
SCIP Status        : problem is solved [optimal solution found]
Total Time         :       2.97
  solving          :       1.73
  presolving       :       0.72 (included in solving)
  reading          :       1.24
  copying          :       0.01 (1 #copies) (minimal 0.01, maximal 0.01, average 0.01)
Original Problem   :
  Problem name     : neos-525149
  Variables        : 3640 (3600 binary, 0 integer, 0 implicit integer, 40 continuous)
  Constraints      : 144120 initial, 144120 maximal
  Objective        : minimize, 3640 non-zeros (abs.min = 1, abs.max = 1000)
Presolved Problem  :
  Problem name     : t_neos-525149
  Variables        : 3640 (3600 binary, 0 integer, 40 implicit integer, 0 continuous)
  Constraints      : 2520 initial, 2525 maximal
  Objective        : minimize, 3100 non-zeros (abs.min = 1, abs.max = 1000)
  Nonzeros         : 32400 constraint, 3984 clique table
Presolvers         :   ExecTime  SetupTime  Calls  FixedVars   AggrVars   ChgTypes  ChgBounds   AddHoles    DelCons    AddCons   ChgSides   ChgCoefs
  boundshift       :       0.00       0.00      0          0          0          0          0          0          0          0          0          0
  convertinttobin  :       0.00       0.00      0          0          0          0          0          0          0          0          0          0
  domcol           :       0.00       0.00      1          0          0          0          0          0          0          0          0          0
  dualagg          :       0.00       0.00      0          0          0          0          0          0          0          0          0          0
  dualcomp         :       0.00       0.00      0          0          0          0          0          0          0          0          0          0
  dualinfer        :       0.00       0.00      0          0          0          0          0          0          0          0          0          0
  dualsparsify     :       0.01       0.00      1          0          0          0          0          0          0          0          0          0
  gateextraction   :       0.00       0.00      0          0          0          0          0          0          0          0          0          0
  implics          :       0.00       0.00      3          0          0          0          0          0          0          0          0          0
  inttobinary      :       0.00       0.00      0          0          0          0          0          0          0          0          0          0
  qpkktref         :       0.00       0.00      0          0          0          0          0          0          0          0          0          0
  redvub           :       0.00       0.00      0          0          0          0          0          0          0          0          0          0
  sparsify         :       0.05       0.00      1          0          0          0          0          0          0          0          0          0
  stuffing         :       0.00       0.00      0          0          0          0          0          0          0          0          0          0
  trivial          :       0.00       0.00      4          0          0          0          0          0          0          0          0          0
  tworowbnd        :       0.00       0.00      0          0          0          0          0          0          0          0          0          0
  dualfix          :       0.00       0.00      4          0          0          0          0          0          0          0          0          0
  genvbounds       :       0.00       0.00      0          0          0          0          0          0          0          0          0          0
  probing          :       0.02       0.00      1          0          0          0          0          0          0          0          0          0
  pseudoobj        :       0.00       0.00      0          0          0          0          0          0          0          0          0          0
  symmetry         :       0.00       0.00      0          0          0          0          0          0          0          0          0          0
  vbounds          :       0.00       0.00      1          0          0          0          0          0          0          0          0          0
  setppc           :       0.00       0.00      3          0          0          0          0          0          0          0          0          0
  linear           :       0.51       0.17      7          0          0          0         40          0     141600          0          0          0
  logicor          :       0.00       0.00      0          0          0          0          0          0          0          0          0          0
  benders          :       0.00       0.00      0          0          0          0          0          0          0          0          0          0
  components       :       0.00       0.00      1          0          0          0          0          0          0          0          0          0
  root node        :          -          -      -       1651          -          -       1676          -          -          -          -          -
Constraints        :     Number  MaxNumber  #Separate #Propagate    #EnfoLP    #EnfoRelax  #EnfoPS    #Check   #ResProp    Cutoffs    DomReds       Cuts    Applied      Conss   Children
  benderslp        :          0          0          0          0          0          0          0         24          0          0          0          0          0          0          0
  integral         :          0          0          0          0          0          0          0         24          0          0          0          0          0          0          0
  setppc           :        120        120         10       4729          0          0          0         18        212          3          0          0          0          0          0
  linear           :       2400       2400         10       4712          0          0          0          4         22          0          0          0          0          0          0
  logicor          :          0+         5         10         30          0          0          0          0          0          0          0          0          0          0          0
  benders          :          0          0          0          0          0          0          0          5          0          0          0          0          0          0          0
  countsols        :          0          0          0          0          0          0          0          5          0          0          0          0          0          0          0
  components       :          0          0          0          0          0          0          0          0          0          0          0          0          0          0          0
Constraint Timings :  TotalTime  SetupTime   Separate  Propagate     EnfoLP     EnfoPS     EnfoRelax   Check    ResProp    SB-Prop
  benderslp        :       0.00       0.00       0.00       0.00       0.00       0.00       0.00       0.00       0.00       0.00
  integral         :       0.00       0.00       0.00       0.00       0.00       0.00       0.00       0.00       0.00       0.00
  setppc           :       0.07       0.00       0.00       0.07       0.00       0.00       0.00       0.00       0.00       0.00
  linear           :       0.19       0.17       0.00       0.02       0.00       0.00       0.00       0.00       0.00       0.00
  logicor          :       0.00       0.00       0.00       0.00       0.00       0.00       0.00       0.00       0.00       0.00
  benders          :       0.00       0.00       0.00       0.00       0.00       0.00       0.00       0.00       0.00       0.00
  countsols        :       0.00       0.00       0.00       0.00       0.00       0.00       0.00       0.00       0.00       0.00
  components       :       0.00       0.00       0.00       0.00       0.00       0.00       0.00       0.00       0.00       0.00
Propagators        : #Propagate   #ResProp    Cutoffs    DomReds
  dualfix          :          2          0          0          0
  genvbounds       :          0          0          0          0
  nlobbt           :          0          0          0          0
  obbt             :          0          0          0          0
  probing          :          0          0          0          0
  pseudoobj        :         21          0          0       1608
  redcost          :         14          0          0         58
  rootredcost      :          0          0          0          0
  symmetry         :          0          0          0          0
  vbounds          :        476          0          0          0
Propagator Timings :  TotalTime  SetupTime   Presolve  Propagate    ResProp    SB-Prop
  dualfix          :       0.00       0.00       0.00       0.00       0.00       0.00
  genvbounds       :       0.00       0.00       0.00       0.00       0.00       0.00
  nlobbt           :       0.00       0.00       0.00       0.00       0.00       0.00
  obbt             :       0.00       0.00       0.00       0.00       0.00       0.00
  probing          :       0.02       0.00       0.02       0.00       0.00       0.00
  pseudoobj        :       0.01       0.00       0.00       0.01       0.00       0.00
  redcost          :       0.00       0.00       0.00       0.00       0.00       0.00
  rootredcost      :       0.00       0.00       0.00       0.00       0.00       0.00
  symmetry         :       0.00       0.00       0.00       0.00       0.00       0.00
  vbounds          :       0.00       0.00       0.00       0.00       0.00       0.00
Conflict Analysis  :       Time      Calls    Success    DomReds  Conflicts   Literals    Reconvs ReconvLits   Dualrays   Nonzeros   LP Iters   (pool size: [10000,10000])
  propagation      :       0.00          3          3          -          3       40.3          0        0.0          -          -          -
  infeasible LP    :       0.00          0          0          -          0        0.0          0        0.0          0        0.0          0
  bound exceed. LP :       0.01          3          3          -          3        3.0          0        0.0          0        0.0         30
  strong branching :       0.00          0          0          -          0        0.0          0        0.0          -          -          0
  pseudo solution  :       0.00          0          0          -          0        0.0          0        0.0          -          -          -
  applied globally :       0.00          -          -          0          6       21.7          -          -          0          -          -
  applied locally  :          -          -          -          0          0        0.0          -          -          0          -          -
Separators         :   ExecTime  SetupTime      Calls  RootCalls    Cutoffs    DomReds  FoundCuts ViaPoolAdd  DirectAdd    Applied ViaPoolApp  DirectApp      Conss
  cut pool         :       0.00          -         19         19          -          -        293        156          -          -          -          -          -    (maximal pool size:        293)
  aggregation      :       0.03       0.00         10         10          0          0         48        122          0         17         17          0          0
  > cmir           :          -          -          -          -          -          -          -        102          0          0          0          0          -
  > flowcover      :          -          -          -          -          -          -          -         20          0         17         17          0          -
  > knapsackcover  :          -          -          -          -          -          -          -          0          0          0          0          0          -
  cgmip            :       0.00       0.00          0          0          0          0          0          0          0          0          0          0          0
  clique           :       0.01       0.00         10         10          0          0          0          0          0          0          0          0          0
  closecuts        :       0.00       0.00          0          0          0          0          0          0          0          0          0          0          0
  convexproj       :       0.00       0.00          0          0          0          0          0          0          0          0          0          0          0
  disjunctive      :       0.00       0.00          0          0          0          0          0          0          0          0          0          0          0
  eccuts           :       0.00       0.00          0          0          0          0          0          0          0          0          0          0          0
  gauge            :       0.00       0.00          0          0          0          0          0          0          0          0          0          0          0
  gomory           :       0.21       0.00         10         10          0          0        227         29          0          1          1          0          0
  > gomorymi       :          -          -          -          -          -          -          -          3          0          0          0          0          -
  > strongcg       :          -          -          -          -          -          -          -         26          0          1          1          0          -
  impliedbounds    :       0.00       0.00         10         10          0          0          0          0          0          0          0          0          0
  interminor       :       0.00       0.00          0          0          0          0          0          0          0          0          0          0          0
  intobj           :       0.00       0.00          0          0          0          0          0          0          0          0          0          0          0
  mcf              :       0.00       0.00          1          1          0          0          0          0          0          0          0          0          0
  minor            :       0.00       0.00          0          0          0          0          0          0          0          0          0          0          0
  mixing           :       0.00       0.00         10         10          0          0          0          0          0          0          0          0          0
  oddcycle         :       0.00       0.00          0          0          0          0          0          0          0          0          0          0          0
  rapidlearning    :       0.05       0.00          1          1          0          7          0          0          0          0          0          0          0
  rlt              :       0.00       0.00         10         10          0          0          0          0          0          0          0          0          0
  zerohalf         :       0.02       0.00         10         10          0          0         18          5          0          2          2          0          0
Cutselectors       :   ExecTime  SetupTime      Calls  RootCalls   Selected     Forced   Filtered  RootSelec   RootForc   RootFilt 
  hybrid           :       0.00       0.00         10         10         20          2        136         20          2        136
Pricers            :   ExecTime  SetupTime      Calls       Vars
  problem variables:       0.00          -          0          0
Branching Rules    :   ExecTime  SetupTime   BranchLP  BranchExt   BranchPS    Cutoffs    DomReds       Cuts      Conss   Children
  allfullstrong    :       0.00       0.00          0          0          0          0          0          0          0          0
  cloud            :       0.00       0.00          0          0          0          0          0          0          0          0
  distribution     :       0.00       0.00          0          0          0          0          0          0          0          0
  fullstrong       :       0.00       0.00          0          0          0          0          0          0          0          0
  inference        :       0.00       0.00          0          0          0          0          0          0          0          0
  leastinf         :       0.00       0.00          0          0          0          0          0          0          0          0
  lookahead        :       0.00       0.00          0          0          0          0          0          0          0          0
  mostinf          :       0.00       0.00          0          0          0          0          0          0          0          0
  multaggr         :       0.00       0.00          0          0          0          0          0          0          0          0
  nodereopt        :       0.00       0.00          0          0          0          0          0          0          0          0
  pscost           :       0.00       0.00          0          0          0          0          0          0          0          0
  random           :       0.00       0.00          0          0          0          0          0          0          0          0
  relpscost        :       0.00       0.00          0          0          0          0          0          0          0          0
  vanillafullstrong:       0.00       0.00          0          0          0          0          0          0          0          0
Primal Heuristics  :   ExecTime  SetupTime      Calls      Found       Best
  LP solutions     :       0.00          -          -          0          0
  relax solutions  :       0.00          -          -          0          0
  pseudo solutions :       0.00          -          -          0          0
  strong branching :       0.00          -          -          0          0
  actconsdiving    :       0.00       0.00          0          0          0
  adaptivediving   :       0.00       0.00          0          0          0
  alns             :       0.00       0.00          0          0          0
  bound            :       0.00       0.00          0          0          0
  clique           :       0.03       0.00          1          1          1
  coefdiving       :       0.00       0.00          0          0          0
  completesol      :       0.00       0.00          0          0          0
  conflictdiving   :       0.00       0.00          0          0          0
  crossover        :       0.00       0.00          0          0          0
  dins             :       0.00       0.00          0          0          0
  distributiondivin:       0.00       0.00          0          0          0
  dps              :       0.00       0.00          0          0          0
  dualval          :       0.00       0.00          0          0          0
  farkasdiving     :       0.00       0.00          0          0          0
  feaspump         :       0.00       0.00          0          0          0
  fixandinfer      :       0.00       0.00          0          0          0
  fracdiving       :       0.00       0.00          0          0          0
  gins             :       0.00       0.00          0          0          0
  guideddiving     :       0.00       0.00          0          0          0
  indicator        :       0.00       0.00          0          0          0
  intdiving        :       0.00       0.00          0          0          0
  intshifting      :       0.00       0.00          0          0          0
  linesearchdiving :       0.00       0.00          0          0          0
  localbranching   :       0.00       0.00          0          0          0
  locks            :       0.03       0.00          1          0          0
  lpface           :       0.00       0.00          0          0          0
  mpec             :       0.00       0.00          0          0          0
  multistart       :       0.00       0.00          0          0          0
  mutation         :       0.00       0.00          0          0          0
  nlpdiving        :       0.00       0.00          0          0          0
  objpscostdiving  :       0.00       0.00          0          0          0
  octane           :       0.00       0.00          0          0          0
  ofins            :       0.00       0.00          0          0          0
  oneopt           :       0.00       0.00          4          0          0
  padm             :       0.00       0.00          0          0          0
  proximity        :       0.00       0.00          0          0          0
  pscostdiving     :       0.00       0.00          0          0          0
  randrounding     :       0.10       0.00         11          0          0
  rens             :       0.00       0.00          0          0          0
  reoptsols        :       0.00       0.00          0          0          0
  repair           :       0.00       0.00          0          0          0
  rins             :       0.00       0.00          0          0          0
  rootsoldiving    :       0.00       0.00          0          0          0
  rounding         :       0.00       0.00         10          0          0
  shiftandpropagate:       0.00       0.00          0          0          0
  shifting         :       0.01       0.00         10          3          3
  simplerounding   :       0.00       0.00          0          0          0
  subnlp           :       0.00       0.00          0          0          0
  trivial          :       0.00       0.00          2          0          0
  trivialnegation  :       0.00       0.00          0          0          0
  trustregion      :       0.00       0.00          0          0          0
  trysol           :       0.00       0.00          0          0          0
  twoopt           :       0.00       0.00          0          0          0
  undercover       :       0.00       0.00          0          0          0
  vbounds          :       0.05       0.00          1          0          0
  veclendiving     :       0.00       0.00          0          0          0
  zeroobj          :       0.00       0.00          0          0          0
  zirounding       :       0.00       0.00          0          0          0
  other solutions  :          -          -          -          0          -
LP                 :       Time      Calls Iterations  Iter/call   Iter/sec  Time-0-It Calls-0-It    ItLimit
  primal LP        :       0.00          0          0       0.00          -       0.00          0
  dual LP          :       0.04         16        283      25.73    7122.72       0.00          5
  lex dual LP      :       0.00          0          0       0.00          -
  barrier LP       :       0.00          0          0       0.00          -       0.00          0
  resolve instable :       0.00          0          0       0.00          -
  diving/probing LP:       0.01          0          0       0.00          -
  strong branching :       0.00          0          0       0.00          -          -          -          0
    (at root node) :          -          0          0       0.00          -
  conflict analysis:       0.00          3         30      10.00          -
B&B Tree           :
  number of runs   :          1
  nodes            :          1 (0 internal, 1 leaves)
  feasible leaves  :          0
  infeas. leaves   :          1
  objective leaves :          0
  nodes (total)    :          1 (0 internal, 1 leaves)
  nodes left       :          0
  max depth        :          0
  max depth (total):          0
  backtracks       :          0 (0.0%)
  early backtracks :          0 (0.0%)
  nodes exc. ref.  :          0 (0.0%)
  delayed cutoffs  :          0
  repropagations   :          0 (0 domain reductions, 0 cutoffs)
  avg switch length:       2.00
  switching time   :       0.00
Root Node          :
  First LP value   : +6.00000000000000e+01
  First LP Iters   :        103 (6083.87 Iter/sec)
  First LP Time    :       0.02
  Final Dual Bound : +6.10000000000000e+01
  Final Root Iters :        283
  Root LP Estimate :                     -
Solution           :
  Solutions found  :          4 (4 improvements)
  First Solution   : +2.06600000000000e+03   (in run 1, after 1 nodes, 1.11 seconds, depth 61, found by <clique>)
  Gap First Sol.   :   22855.56 %
  Gap Last Sol.    :       1.67 %
  Primal Bound     : +6.10000000000000e+01   (in run 1, after 1 nodes, 1.71 seconds, depth 0, found by <shifting>)
  Dual Bound       : +6.10000000000000e+01
  Gap              :       0.00 %
Integrals          :      Total       Avg%
  primal-dual      :     155.07      89.38
  primal-ref       :          -          - (not evaluated)
  dual-ref         :          -          - (not evaluated)
written solution information to file <results/final_miplib_symretope_if_extended_generating_set_cpx_v802__settings_final_nosym_norestarts__0__neos-525149.mps.gz.sol>
@04 1686649240
